
Gurobi 10.0.3 (linux64, gurobi_cl) logging started Fri Nov 10 17:26:42 2023

Set parameter Username
Set parameter TimeLimit to value 3600
Set parameter LogFile to value "RCPSP_1525.log"
Set parameter Threads to value 32
Academic license - for non-commercial use only - expires 2024-11-06
Using license file /home/jrivera6/gurobi-licenses/v1003/compute-0-36/gurobi.lic

Gurobi Optimizer version 10.0.3 build v10.0.3rc0 (linux64)
Copyright (c) 2023, Gurobi Optimization, LLC

Read MPS format model from file RCPSP_1525.mps
Reading time = 1.04 seconds
RCPSP_1525: 75214 rows, 29890 columns, 251629 nonzeros

CPU model: Intel(R) Xeon(R) Gold 6130 CPU @ 2.10GHz, instruction set [SSE2|AVX|AVX2|AVX512]
Thread count: 32 physical cores, 32 logical processors, using up to 32 threads

Optimize a model with 75214 rows, 29890 columns and 251629 nonzeros
Model fingerprint: 0xa1d013f1
Variable types: 122 continuous, 29768 integer (29768 binary)
Coefficient statistics:
  Matrix range     [1e+00, 7e+02]
  Objective range  [1e+00, 1e+00]
  Bounds range     [1e+00, 1e+00]
  RHS range        [1e+00, 7e+02]
Presolve removed 10830 rows and 1449 columns (presolve time = 5s) ...
Presolve removed 11397 rows and 1975 columns
Presolve time: 5.70s
Presolved: 63817 rows, 27915 columns, 223537 nonzeros
Variable types: 121 continuous, 27794 integer (27794 binary)

Deterministic concurrent LP optimizer: primal and dual simplex (primal and dual model)
Showing first log only...

Root relaxation presolved: 63817 rows, 27915 columns, 223537 nonzeros


Root simplex log...

Iteration    Objective       Primal Inf.    Dual Inf.      Time
       0    1.1400000e+02   9.963992e-03   2.148428e+08      8s
    4519    1.1400000e+02   0.000000e+00   0.000000e+00      9s
Concurrent spin time: 2.24s

Solved with primal simplex (primal model)

Root relaxation: objective 1.140000e+02, 4519 iterations, 4.82 seconds (0.29 work units)
Total elapsed time = 16.91s

    Nodes    |    Current Node    |     Objective Bounds      |     Work
 Expl Unexpl |  Obj  Depth IntInf | Incumbent    BestBd   Gap | It/Node Time

     0     0  114.00000    0   91          -  114.00000      -     -   17s
     0     0  114.00000    0  402          -  114.00000      -     -   50s
     0     0  114.00000    0  391          -  114.00000      -     -   54s
     0     0  114.00000    0  366          -  114.00000      -     -   55s
     0     0  114.00000    0  623          -  114.00000      -     -   59s
     0     0  114.00000    0  623          -  114.00000      -     -   60s
     0     0  114.00000    0  613          -  114.00000      -     -   60s
     0     0  114.00000    0   46          -  114.00000      -     -  107s
     0     0  114.00000    0   28          -  114.00000      -     -  183s
     0     0  114.00000    0  292          -  114.00000      -     -  192s
     0     0  114.00000    0   21          -  114.00000      -     -  236s
     0     0  114.00000    0   25          -  114.00000      -     -  279s
     0     0  114.00000    0  103          -  114.00000      -     -  283s
     0     0  114.00000    0   25          -  114.00000      -     -  316s
     0     0  114.00000    0  281          -  114.00000      -     -  325s
     0     0  114.00000    0  281          -  114.00000      -     -  326s
     0     0  114.00000    0  279          -  114.00000      -     -  326s
     0     0  114.00000    0    4          -  114.00000      -     -  356s
     0     0  114.00000    0    4          -  114.00000      -     -  367s
     0     0  114.00000    0   12          -  114.00000      -     -  381s
     0     0  114.00000    0   66          -  114.00000      -     -  391s
     0     0  114.00000    0   17          -  114.00000      -     -  403s
     0     0  114.00000    0   16          -  114.00000      -     -  446s
     0     2  114.00000    0   16          -  114.00000      -     -  475s
     1     4  114.00000    1   16          -  114.00000      -  1077  485s
     3     8  114.00000    2   16          -  114.00000      -   365  502s
     7    16  114.00000    3  229          -  114.00000      -   293  539s
    15    29  114.00000    4  212          -  114.00000      -   248  570s
    31    55  114.00000    5  204          -  114.00000      -   359  593s
    60    87  114.00000    6  220          -  114.00000      -   233  621s
    92   118  114.00000    7  284          -  114.00000      -   264  634s
   124   149  114.00000    7  228          -  114.00000      -   255  647s
   156   180  114.00000    8  228          -  114.00000      -   232  664s
   188   210  114.00000    9  228          -  114.00000      -   212  863s
   190   210  114.00000    9   48          -  114.00000      -   210  907s
   191   210  114.00000   10    4          -  114.00000      -   222  920s
   196   210  114.00000   10   10          -  114.00000      -   237  999s
*  209   210              10     114.0000000  114.00000  0.00%   246 1324s
   220   210     cutoff   10       114.00000  114.00000  0.00%   266 1410s

Cutting planes:
  Gomory: 1
  Cover: 29
  Implied bound: 117
  MIR: 214
  StrongCG: 2
  RLT: 383
  Relax-and-lift: 41

Explored 222 nodes (112031 simplex iterations) in 2562.87 seconds (38.49 work units)
Thread count was 32 (of 32 available processors)

Solution count 1: 114 

Optimal solution found (tolerance 1.00e-04)
Best objective 1.140000000000e+02, best bound 1.140000000000e+02, gap 0.0000%

Wrote result file 'RCPSP_1525.sol'

